Version identifier: 22.1.0.0 | 2022-03-09 | 1a383f8ce
CPXPARAM_Threads                                 1
CPXPARAM_MIP_Strategy_VariableSelect             3
CPXPARAM_TimeLimit                               599.98951622899995
Tried aggregator 1 time.
MIP Presolve eliminated 17 rows and 0 columns.
Reduced MIP has 4503 rows, 10000 columns, and 100618 nonzeros.
Reduced MIP has 10000 binaries, 0 generals, 0 SOSs, and 0 indicators.
Presolve time = 0.07 sec. (46.14 ticks)
Probing time = 0.01 sec. (4.55 ticks)
Tried aggregator 1 time.
Detecting symmetries...
Reduced MIP has 4503 rows, 10000 columns, and 100618 nonzeros.
Reduced MIP has 10000 binaries, 0 generals, 0 SOSs, and 0 indicators.
Presolve time = 0.08 sec. (58.58 ticks)
Probing time = 0.01 sec. (4.55 ticks)
Clique table members: 2991.
MIP emphasis: balance optimality and feasibility.
MIP search method: dynamic search.
Parallel mode: none, using 1 thread.
Root relaxation solution time = 3.43 sec. (3102.82 ticks)

        Nodes                                         Cuts/
   Node  Left     Objective  IInf  Best Integer    Best Bound    ItCnt     Gap

      0     0        0.0000  2152                      0.0000     8602         
      0     0        0.0000   343                    Cuts: 12    10390         
      0     0        0.0000   553                   Cuts: 104    15596         
*     0+    0                            0.0000        0.0000             0.00%
      0     0        cutoff              0.0000        0.0000    15596    0.00%
Elapsed time = 54.84 sec. (49632.40 ticks, tree = 0.01 MB, solutions = 1)

Clique cuts applied:  49
Zero-half cuts applied:  12
Lift and project cuts applied:  4
Gomory fractional cuts applied:  2

Root node processing (before b&c):
  Real time             =   54.84 sec. (49633.08 ticks)
Sequential b&c:
  Real time             =    0.00 sec. (0.00 ticks)
                          ------------
Total (root+branch&cut) =   54.84 sec. (49633.08 ticks)
Primal:	500
Dual:	500
Status:	Optimal
Time:	54.907
Sequence:
	8
	10
	18
	17
	10
	18
	17
	10
	1
	17
	10
	1
	8
	7
	13
	8
	1
	0
	5
	3
	9
	4
	2
	9
	14
	4
	9
	3
	4
	9
	3
	4
	9
	14
	1
	10
	8
	4
	10
	17
	4
	10
	8
	2
	0
	3
	11
	0
	14
	11
	0
	14
	11
	13
	3
	11
	13
	14
	7
	13
	8
	7
	13
	8
	7
	13
	17
	7
	13
	8
	7
	13
	3
	11
	0
	14
	11
	0
	14
	11
	0
	14
	11
	0
	14
	11
	13
	3
	11
	13
	18
	17
	10
	18
	17
	10
	5
	17
	10
	18
	14
	9
	2
	14
	10
	4
	8
	10
	4
	17
	10
	5
	8
	10
	4
	8
	10
	5
	8
	10
	4
	8
	0
	7
	17
	13
	7
	8
	4
	10
	14
	2
	9
	14
	18
	9
	1
	14
	9
	18
	14
	9
	4
	14
	9
	18
	3
	9
	1
	14
	9
	5
	3
	9
	4
	14
	10
	4
	17
	10
	18
	17
	10
	18
	8
	4
	10
	8
	4
	10
	8
	1
	10
	17
	18
	10
	8
	4
	10
	14
	18
	9
	14
	18
	9
	3
	18
	9
	14
	18
	9
	3
	18
	9
	3
	2
	10
	8
	4
	13
	14
	11
	0
	14
	11
	13
	3
	11
	13
	3
	11
	1
	16
	6
	18
	19
	6
	4
	19
	6
	2
	16
	15
	4
	3
	9
	18
	14
	9
	18
	3
	9
	1
	14
	9
	2
	3
	9
	18
	3
	9
	2
	3
	10
	18
	17
	10
	18
	17
	10
	2
	8
	0
	7
	8
	0
	7
	8
	13
	7
	8
	13
	7
	17
	13
	7
	8
	13
	7
	17
	0
	7
	8
	13
	7
	8
	0
	7
	17
	13
	7
	17
	0
	7
	8
	0
	7
	17
	13
	7
	14
	0
	11
	3
	0
	15
	3
	0
	11
	14
	0
	15
	14
	0
	15
	3
	13
	11
	1
	16
	5
	15
	16
	5
	15
	16
	5
	15
	16
	5
	15
	16
	5
	15
	16
	2
	7
	16
	1
	11
	13
	3
	11
	0
	3
	11
	13
	3
	15
	13
	3
	11
	0
	14
	12
	10
	3
	12
	2
	19
	6
	18
	19
	6
	18
	19
	6
	1
	19
	12
	2
	19
	6
	2
	19
	6
	4
	19
	12
	5
	16
	15
	5
	16
	15
	5
	16
	15
	5
	16
	15
	5
	16
	15
	5
	16
	5
	15
	16
	5
	15
	16
	5
	15
	16
	2
	6
	19
	2
	12
	19
	5
	6
	19
	2
	6
	19
	5
	1
	19
	1
	6
	19
	1
	18
	19
	6
	18
	19
	6
	4
	19
	6
	18
	19
	12
	2
	19
	6
	18
	19
	12
	2
	19
	18
	6
	19
	2
	12
	19
	1
	6
	19
	18
	6
	19
	2
	12
	19
	2
	6
	19
	5
	12
	19
	5
	18
	19
	6
	4
	19
	12
	2
	19
	2
	18
	19
	6
	1
	19
	12
	2
	19
	12
	2
	16
	5
	15
	16
	5
	15
	16
	1
	7
	16
	6
	7
	16
	5
	15
	16
	5
	12
	19
	1
	6
	19
	2
	12
	19
